(set-info :category "industrial")
(set-info :status sat)
(declare-fun x00 () (_ BitVec 8))
(declare-fun x01 () (_ BitVec 8))
(declare-fun x03 () (_ BitVec 8))
(declare-fun x08 () (_ BitVec 8))
(declare-fun x10 () (_ BitVec 8))
(declare-fun x12 () (_ BitVec 8))
(declare-fun x13 () (_ BitVec 8))
(declare-fun x14 () (_ BitVec 8))
(declare-fun x15 () (_ BitVec 8))
(declare-fun x18 () (_ BitVec 8))
(declare-fun x20 () (_ BitVec 8))
(declare-fun x21 () (_ BitVec 8))
(declare-fun x22 () (_ BitVec 8))
(declare-fun x24 () (_ BitVec 8))
(declare-fun x26 () (_ BitVec 8))
(declare-fun x27 () (_ BitVec 8))
(declare-fun x28 () (_ BitVec 8))
(declare-fun x30 () (_ BitVec 8))
(declare-fun x34 () (_ BitVec 8))
(declare-fun x35 () (_ BitVec 8))
(declare-fun x36 () (_ BitVec 8))
(declare-fun x40 () (_ BitVec 8))
(declare-fun x42 () (_ BitVec 8))
(declare-fun x43 () (_ BitVec 8))
(declare-fun x45 () (_ BitVec 8))
(declare-fun x48 () (_ BitVec 8))
(declare-fun x51 () (_ BitVec 8))
(declare-fun x53 () (_ BitVec 8))
(declare-fun x54 () (_ BitVec 8))
(declare-fun x55 () (_ BitVec 8))
(declare-fun x57 () (_ BitVec 8))
(declare-fun x58 () (_ BitVec 8))
(declare-fun x60 () (_ BitVec 8))
(declare-fun x61 () (_ BitVec 8))
(declare-fun x65 () (_ BitVec 8))
(declare-fun x66 () (_ BitVec 8))
(declare-fun x67 () (_ BitVec 8))
(declare-fun x71 () (_ BitVec 8))
(declare-fun x72 () (_ BitVec 8))
(declare-fun x74 () (_ BitVec 8))
(declare-fun x76 () (_ BitVec 8))
(declare-fun x78 () (_ BitVec 8))
(declare-fun x82 () (_ BitVec 8))
(declare-fun x84 () (_ BitVec 8))
(declare-fun x85 () (_ BitVec 8))
(declare-fun x86 () (_ BitVec 8))
(declare-fun x87 () (_ BitVec 8))
(assert (bvult x00 (_ bv9 8)))
(assert (bvult x01 (_ bv9 8)))
(assert (bvult x03 (_ bv9 8)))
(assert (bvult x08 (_ bv9 8)))
(assert (bvult x10 (_ bv9 8)))
(assert (bvult x12 (_ bv9 8)))
(assert (bvult x13 (_ bv9 8)))
(assert (bvult x14 (_ bv9 8)))
(assert (bvult x15 (_ bv9 8)))
(assert (bvult x18 (_ bv9 8)))
(assert (bvult x20 (_ bv9 8)))
(assert (bvult x21 (_ bv9 8)))
(assert (bvult x22 (_ bv9 8)))
(assert (bvult x24 (_ bv9 8)))
(assert (bvult x26 (_ bv9 8)))
(assert (bvult x27 (_ bv9 8)))
(assert (bvult x28 (_ bv9 8)))
(assert (bvult x30 (_ bv9 8)))
(assert (bvult x34 (_ bv9 8)))
(assert (bvult x35 (_ bv9 8)))
(assert (bvult x36 (_ bv9 8)))
(assert (bvult x40 (_ bv9 8)))
(assert (bvult x42 (_ bv9 8)))
(assert (bvult x43 (_ bv9 8)))
(assert (bvult x45 (_ bv9 8)))
(assert (bvult x48 (_ bv9 8)))
(assert (bvult x51 (_ bv9 8)))
(assert (bvult x53 (_ bv9 8)))
(assert (bvult x54 (_ bv9 8)))
(assert (bvult x55 (_ bv9 8)))
(assert (bvult x57 (_ bv9 8)))
(assert (bvult x58 (_ bv9 8)))
(assert (bvult x60 (_ bv9 8)))
(assert (bvult x61 (_ bv9 8)))
(assert (bvult x65 (_ bv9 8)))
(assert (bvult x66 (_ bv9 8)))
(assert (bvult x67 (_ bv9 8)))
(assert (bvult x71 (_ bv9 8)))
(assert (bvult x72 (_ bv9 8)))
(assert (bvult x74 (_ bv9 8)))
(assert (bvult x76 (_ bv9 8)))
(assert (bvult x78 (_ bv9 8)))
(assert (bvult x82 (_ bv9 8)))
(assert (bvult x84 (_ bv9 8)))
(assert (bvult x85 (_ bv9 8)))
(assert (bvult x86 (_ bv9 8)))
(assert (bvult x87 (_ bv9 8)))
(assert (not (= x00 x01)))
(assert (not (= x00 (_ bv3 8))))
(assert (not (= x00 x03)))
(assert (not (= x00 (_ bv7 8))))
(assert (not (= x00 (_ bv2 8))))
(assert (not (= x00 (_ bv6 8))))
(assert (not (= x00 (_ bv1 8))))
(assert (not (= x00 x08)))
(assert (not (= x01 (_ bv3 8))))
(assert (not (= x01 x03)))
(assert (not (= x01 (_ bv7 8))))
(assert (not (= x01 (_ bv2 8))))
(assert (not (= x01 (_ bv6 8))))
(assert (not (= x01 (_ bv1 8))))
(assert (not (= x01 x08)))
(assert (not (= (_ bv3 8) x03)))
(assert (not (= (_ bv3 8) (_ bv7 8))))
(assert (not (= (_ bv3 8) (_ bv2 8))))
(assert (not (= (_ bv3 8) (_ bv6 8))))
(assert (not (= (_ bv3 8) (_ bv1 8))))
(assert (not (= (_ bv3 8) x08)))
(assert (not (= x03 (_ bv7 8))))
(assert (not (= x03 (_ bv2 8))))
(assert (not (= x03 (_ bv6 8))))
(assert (not (= x03 (_ bv1 8))))
(assert (not (= x03 x08)))
(assert (not (= (_ bv7 8) (_ bv2 8))))
(assert (not (= (_ bv7 8) (_ bv6 8))))
(assert (not (= (_ bv7 8) (_ bv1 8))))
(assert (not (= (_ bv7 8) x08)))
(assert (not (= (_ bv2 8) (_ bv6 8))))
(assert (not (= (_ bv2 8) (_ bv1 8))))
(assert (not (= (_ bv2 8) x08)))
(assert (not (= (_ bv6 8) (_ bv1 8))))
(assert (not (= (_ bv6 8) x08)))
(assert (not (= (_ bv1 8) x08)))
(assert (not (= x10 (_ bv6 8))))
(assert (not (= x10 x12)))
(assert (not (= x10 x13)))
(assert (not (= x10 x14)))
(assert (not (= x10 x15)))
(assert (not (= x10 (_ bv9 8))))
(assert (not (= x10 (_ bv7 8))))
(assert (not (= x10 x18)))
(assert (not (= (_ bv6 8) x12)))
(assert (not (= (_ bv6 8) x13)))
(assert (not (= (_ bv6 8) x14)))
(assert (not (= (_ bv6 8) x15)))
(assert (not (= (_ bv6 8) (_ bv9 8))))
(assert (not (= (_ bv6 8) (_ bv7 8))))
(assert (not (= (_ bv6 8) x18)))
(assert (not (= x12 x13)))
(assert (not (= x12 x14)))
(assert (not (= x12 x15)))
(assert (not (= x12 (_ bv9 8))))
(assert (not (= x12 (_ bv7 8))))
(assert (not (= x12 x18)))
(assert (not (= x13 x14)))
(assert (not (= x13 x15)))
(assert (not (= x13 (_ bv9 8))))
(assert (not (= x13 (_ bv7 8))))
(assert (not (= x13 x18)))
(assert (not (= x14 x15)))
(assert (not (= x14 (_ bv9 8))))
(assert (not (= x14 (_ bv7 8))))
(assert (not (= x14 x18)))
(assert (not (= x15 (_ bv9 8))))
(assert (not (= x15 (_ bv7 8))))
(assert (not (= x15 x18)))
(assert (not (= (_ bv9 8) (_ bv7 8))))
(assert (not (= (_ bv9 8) x18)))
(assert (not (= (_ bv7 8) x18)))
(assert (not (= x20 x21)))
(assert (not (= x20 x22)))
(assert (not (= x20 (_ bv1 8))))
(assert (not (= x20 x24)))
(assert (not (= x20 (_ bv4 8))))
(assert (not (= x20 x26)))
(assert (not (= x20 x27)))
(assert (not (= x20 x28)))
(assert (not (= x21 x22)))
(assert (not (= x21 (_ bv1 8))))
(assert (not (= x21 x24)))
(assert (not (= x21 (_ bv4 8))))
(assert (not (= x21 x26)))
(assert (not (= x21 x27)))
(assert (not (= x21 x28)))
(assert (not (= x22 (_ bv1 8))))
(assert (not (= x22 x24)))
(assert (not (= x22 (_ bv4 8))))
(assert (not (= x22 x26)))
(assert (not (= x22 x27)))
(assert (not (= x22 x28)))
(assert (not (= (_ bv1 8) x24)))
(assert (not (= (_ bv1 8) (_ bv4 8))))
(assert (not (= (_ bv1 8) x26)))
(assert (not (= (_ bv1 8) x27)))
(assert (not (= (_ bv1 8) x28)))
(assert (not (= x24 (_ bv4 8))))
(assert (not (= x24 x26)))
(assert (not (= x24 x27)))
(assert (not (= x24 x28)))
(assert (not (= (_ bv4 8) x26)))
(assert (not (= (_ bv4 8) x27)))
(assert (not (= (_ bv4 8) x28)))
(assert (not (= x26 x27)))
(assert (not (= x26 x28)))
(assert (not (= x27 x28)))
(assert (not (= x30 (_ bv8 8))))
(assert (not (= x30 (_ bv4 8))))
(assert (not (= x30 (_ bv5 8))))
(assert (not (= x30 x34)))
(assert (not (= x30 x35)))
(assert (not (= x30 x36)))
(assert (not (= x30 (_ bv2 8))))
(assert (not (= x30 (_ bv3 8))))
(assert (not (= (_ bv8 8) (_ bv4 8))))
(assert (not (= (_ bv8 8) (_ bv5 8))))
(assert (not (= (_ bv8 8) x34)))
(assert (not (= (_ bv8 8) x35)))
(assert (not (= (_ bv8 8) x36)))
(assert (not (= (_ bv8 8) (_ bv2 8))))
(assert (not (= (_ bv8 8) (_ bv3 8))))
(assert (not (= (_ bv4 8) (_ bv5 8))))
(assert (not (= (_ bv4 8) x34)))
(assert (not (= (_ bv4 8) x35)))
(assert (not (= (_ bv4 8) x36)))
(assert (not (= (_ bv4 8) (_ bv2 8))))
(assert (not (= (_ bv4 8) (_ bv3 8))))
(assert (not (= (_ bv5 8) x34)))
(assert (not (= (_ bv5 8) x35)))
(assert (not (= (_ bv5 8) x36)))
(assert (not (= (_ bv5 8) (_ bv2 8))))
(assert (not (= (_ bv5 8) (_ bv3 8))))
(assert (not (= x34 x35)))
(assert (not (= x34 x36)))
(assert (not (= x34 (_ bv2 8))))
(assert (not (= x34 (_ bv3 8))))
(assert (not (= x35 x36)))
(assert (not (= x35 (_ bv2 8))))
(assert (not (= x35 (_ bv3 8))))
(assert (not (= x36 (_ bv2 8))))
(assert (not (= x36 (_ bv3 8))))
(assert (not (= (_ bv2 8) (_ bv3 8))))
(assert (not (= x40 (_ bv9 8))))
(assert (not (= x40 x42)))
(assert (not (= x40 x43)))
(assert (not (= x40 (_ bv8 8))))
(assert (not (= x40 x45)))
(assert (not (= x40 (_ bv4 8))))
(assert (not (= x40 (_ bv6 8))))
(assert (not (= x40 x48)))
(assert (not (= (_ bv9 8) x42)))
(assert (not (= (_ bv9 8) x43)))
(assert (not (= (_ bv9 8) (_ bv8 8))))
(assert (not (= (_ bv9 8) x45)))
(assert (not (= (_ bv9 8) (_ bv4 8))))
(assert (not (= (_ bv9 8) (_ bv6 8))))
(assert (not (= (_ bv9 8) x48)))
(assert (not (= x42 x43)))
(assert (not (= x42 (_ bv8 8))))
(assert (not (= x42 x45)))
(assert (not (= x42 (_ bv4 8))))
(assert (not (= x42 (_ bv6 8))))
(assert (not (= x42 x48)))
(assert (not (= x43 (_ bv8 8))))
(assert (not (= x43 x45)))
(assert (not (= x43 (_ bv4 8))))
(assert (not (= x43 (_ bv6 8))))
(assert (not (= x43 x48)))
(assert (not (= (_ bv8 8) x45)))
(assert (not (= (_ bv8 8) (_ bv4 8))))
(assert (not (= (_ bv8 8) (_ bv6 8))))
(assert (not (= (_ bv8 8) x48)))
(assert (not (= x45 (_ bv4 8))))
(assert (not (= x45 (_ bv6 8))))
(assert (not (= x45 x48)))
(assert (not (= (_ bv4 8) (_ bv6 8))))
(assert (not (= (_ bv4 8) x48)))
(assert (not (= (_ bv6 8) x48)))
(assert (not (= (_ bv1 8) x51)))
(assert (not (= (_ bv1 8) (_ bv2 8))))
(assert (not (= (_ bv1 8) x53)))
(assert (not (= (_ bv1 8) x54)))
(assert (not (= (_ bv1 8) x55)))
(assert (not (= (_ bv1 8) (_ bv8 8))))
(assert (not (= (_ bv1 8) x57)))
(assert (not (= (_ bv1 8) x58)))
(assert (not (= x51 (_ bv2 8))))
(assert (not (= x51 x53)))
(assert (not (= x51 x54)))
(assert (not (= x51 x55)))
(assert (not (= x51 (_ bv8 8))))
(assert (not (= x51 x57)))
(assert (not (= x51 x58)))
(assert (not (= (_ bv2 8) x53)))
(assert (not (= (_ bv2 8) x54)))
(assert (not (= (_ bv2 8) x55)))
(assert (not (= (_ bv2 8) (_ bv8 8))))
(assert (not (= (_ bv2 8) x57)))
(assert (not (= (_ bv2 8) x58)))
(assert (not (= x53 x54)))
(assert (not (= x53 x55)))
(assert (not (= x53 (_ bv8 8))))
(assert (not (= x53 x57)))
(assert (not (= x53 x58)))
(assert (not (= x54 x55)))
(assert (not (= x54 (_ bv8 8))))
(assert (not (= x54 x57)))
(assert (not (= x54 x58)))
(assert (not (= x55 (_ bv8 8))))
(assert (not (= x55 x57)))
(assert (not (= x55 x58)))
(assert (not (= (_ bv8 8) x57)))
(assert (not (= (_ bv8 8) x58)))
(assert (not (= x57 x58)))
(assert (not (= x60 x61)))
(assert (not (= x60 (_ bv6 8))))
(assert (not (= x60 (_ bv3 8))))
(assert (not (= x60 (_ bv9 8))))
(assert (not (= x60 x65)))
(assert (not (= x60 x66)))
(assert (not (= x60 x67)))
(assert (not (= x60 (_ bv5 8))))
(assert (not (= x61 (_ bv6 8))))
(assert (not (= x61 (_ bv3 8))))
(assert (not (= x61 (_ bv9 8))))
(assert (not (= x61 x65)))
(assert (not (= x61 x66)))
(assert (not (= x61 x67)))
(assert (not (= x61 (_ bv5 8))))
(assert (not (= (_ bv6 8) (_ bv3 8))))
(assert (not (= (_ bv6 8) (_ bv9 8))))
(assert (not (= (_ bv6 8) x65)))
(assert (not (= (_ bv6 8) x66)))
(assert (not (= (_ bv6 8) x67)))
(assert (not (= (_ bv6 8) (_ bv5 8))))
(assert (not (= (_ bv3 8) (_ bv9 8))))
(assert (not (= (_ bv3 8) x65)))
(assert (not (= (_ bv3 8) x66)))
(assert (not (= (_ bv3 8) x67)))
(assert (not (= (_ bv3 8) (_ bv5 8))))
(assert (not (= (_ bv9 8) x65)))
(assert (not (= (_ bv9 8) x66)))
(assert (not (= (_ bv9 8) x67)))
(assert (not (= (_ bv9 8) (_ bv5 8))))
(assert (not (= x65 x66)))
(assert (not (= x65 x67)))
(assert (not (= x65 (_ bv5 8))))
(assert (not (= x66 x67)))
(assert (not (= x66 (_ bv5 8))))
(assert (not (= x67 (_ bv5 8))))
(assert (not (= (_ bv2 8) x71)))
(assert (not (= (_ bv2 8) x72)))
(assert (not (= (_ bv2 8) (_ bv7 8))))
(assert (not (= (_ bv2 8) x74)))
(assert (not (= (_ bv2 8) (_ bv1 8))))
(assert (not (= (_ bv2 8) x76)))
(assert (not (= (_ bv2 8) (_ bv8 8))))
(assert (not (= (_ bv2 8) x78)))
(assert (not (= x71 x72)))
(assert (not (= x71 (_ bv7 8))))
(assert (not (= x71 x74)))
(assert (not (= x71 (_ bv1 8))))
(assert (not (= x71 x76)))
(assert (not (= x71 (_ bv8 8))))
(assert (not (= x71 x78)))
(assert (not (= x72 (_ bv7 8))))
(assert (not (= x72 x74)))
(assert (not (= x72 (_ bv1 8))))
(assert (not (= x72 x76)))
(assert (not (= x72 (_ bv8 8))))
(assert (not (= x72 x78)))
(assert (not (= (_ bv7 8) x74)))
(assert (not (= (_ bv7 8) (_ bv1 8))))
(assert (not (= (_ bv7 8) x76)))
(assert (not (= (_ bv7 8) (_ bv8 8))))
(assert (not (= (_ bv7 8) x78)))
(assert (not (= x74 (_ bv1 8))))
(assert (not (= x74 x76)))
(assert (not (= x74 (_ bv8 8))))
(assert (not (= x74 x78)))
(assert (not (= (_ bv1 8) x76)))
(assert (not (= (_ bv1 8) (_ bv8 8))))
(assert (not (= (_ bv1 8) x78)))
(assert (not (= x76 (_ bv8 8))))
(assert (not (= x76 x78)))
(assert (not (= (_ bv8 8) x78)))
(assert (not (= (_ bv5 8) (_ bv3 8))))
(assert (not (= (_ bv5 8) x82)))
(assert (not (= (_ bv5 8) (_ bv4 8))))
(assert (not (= (_ bv5 8) x84)))
(assert (not (= (_ bv5 8) x85)))
(assert (not (= (_ bv5 8) x86)))
(assert (not (= (_ bv5 8) x87)))
(assert (not (= (_ bv5 8) (_ bv7 8))))
(assert (not (= (_ bv3 8) x82)))
(assert (not (= (_ bv3 8) (_ bv4 8))))
(assert (not (= (_ bv3 8) x84)))
(assert (not (= (_ bv3 8) x85)))
(assert (not (= (_ bv3 8) x86)))
(assert (not (= (_ bv3 8) x87)))
(assert (not (= (_ bv3 8) (_ bv7 8))))
(assert (not (= x82 (_ bv4 8))))
(assert (not (= x82 x84)))
(assert (not (= x82 x85)))
(assert (not (= x82 x86)))
(assert (not (= x82 x87)))
(assert (not (= x82 (_ bv7 8))))
(assert (not (= (_ bv4 8) x84)))
(assert (not (= (_ bv4 8) x85)))
(assert (not (= (_ bv4 8) x86)))
(assert (not (= (_ bv4 8) x87)))
(assert (not (= (_ bv4 8) (_ bv7 8))))
(assert (not (= x84 x85)))
(assert (not (= x84 x86)))
(assert (not (= x84 x87)))
(assert (not (= x84 (_ bv7 8))))
(assert (not (= x85 x86)))
(assert (not (= x85 x87)))
(assert (not (= x85 (_ bv7 8))))
(assert (not (= x86 x87)))
(assert (not (= x86 (_ bv7 8))))
(assert (not (= x87 (_ bv7 8))))
(assert (not (= x00 x10)))
(assert (not (= x00 x20)))
(assert (not (= x00 x30)))
(assert (not (= x00 x40)))
(assert (not (= x00 (_ bv1 8))))
(assert (not (= x00 x60)))
(assert (not (= x00 (_ bv2 8))))
(assert (not (= x00 (_ bv5 8))))
(assert (not (= x10 x20)))
(assert (not (= x10 x30)))
(assert (not (= x10 x40)))
(assert (not (= x10 (_ bv1 8))))
(assert (not (= x10 x60)))
(assert (not (= x10 (_ bv2 8))))
(assert (not (= x10 (_ bv5 8))))
(assert (not (= x20 x30)))
(assert (not (= x20 x40)))
(assert (not (= x20 (_ bv1 8))))
(assert (not (= x20 x60)))
(assert (not (= x20 (_ bv2 8))))
(assert (not (= x20 (_ bv5 8))))
(assert (not (= x30 x40)))
(assert (not (= x30 (_ bv1 8))))
(assert (not (= x30 x60)))
(assert (not (= x30 (_ bv2 8))))
(assert (not (= x30 (_ bv5 8))))
(assert (not (= x40 (_ bv1 8))))
(assert (not (= x40 x60)))
(assert (not (= x40 (_ bv2 8))))
(assert (not (= x40 (_ bv5 8))))
(assert (not (= (_ bv1 8) x60)))
(assert (not (= (_ bv1 8) (_ bv2 8))))
(assert (not (= (_ bv1 8) (_ bv5 8))))
(assert (not (= x60 (_ bv2 8))))
(assert (not (= x60 (_ bv5 8))))
(assert (not (= (_ bv2 8) (_ bv5 8))))
(assert (not (= x01 (_ bv6 8))))
(assert (not (= x01 x21)))
(assert (not (= x01 (_ bv8 8))))
(assert (not (= x01 (_ bv9 8))))
(assert (not (= x01 x51)))
(assert (not (= x01 x61)))
(assert (not (= x01 x71)))
(assert (not (= x01 (_ bv3 8))))
(assert (not (= (_ bv6 8) x21)))
(assert (not (= (_ bv6 8) (_ bv8 8))))
(assert (not (= (_ bv6 8) (_ bv9 8))))
(assert (not (= (_ bv6 8) x51)))
(assert (not (= (_ bv6 8) x61)))
(assert (not (= (_ bv6 8) x71)))
(assert (not (= (_ bv6 8) (_ bv3 8))))
(assert (not (= x21 (_ bv8 8))))
(assert (not (= x21 (_ bv9 8))))
(assert (not (= x21 x51)))
(assert (not (= x21 x61)))
(assert (not (= x21 x71)))
(assert (not (= x21 (_ bv3 8))))
(assert (not (= (_ bv8 8) (_ bv9 8))))
(assert (not (= (_ bv8 8) x51)))
(assert (not (= (_ bv8 8) x61)))
(assert (not (= (_ bv8 8) x71)))
(assert (not (= (_ bv8 8) (_ bv3 8))))
(assert (not (= (_ bv9 8) x51)))
(assert (not (= (_ bv9 8) x61)))
(assert (not (= (_ bv9 8) x71)))
(assert (not (= (_ bv9 8) (_ bv3 8))))
(assert (not (= x51 x61)))
(assert (not (= x51 x71)))
(assert (not (= x51 (_ bv3 8))))
(assert (not (= x61 x71)))
(assert (not (= x61 (_ bv3 8))))
(assert (not (= x71 (_ bv3 8))))
(assert (not (= (_ bv3 8) x12)))
(assert (not (= (_ bv3 8) x22)))
(assert (not (= (_ bv3 8) (_ bv4 8))))
(assert (not (= (_ bv3 8) x42)))
(assert (not (= (_ bv3 8) (_ bv2 8))))
(assert (not (= (_ bv3 8) (_ bv6 8))))
(assert (not (= (_ bv3 8) x72)))
(assert (not (= (_ bv3 8) x82)))
(assert (not (= x12 x22)))
(assert (not (= x12 (_ bv4 8))))
(assert (not (= x12 x42)))
(assert (not (= x12 (_ bv2 8))))
(assert (not (= x12 (_ bv6 8))))
(assert (not (= x12 x72)))
(assert (not (= x12 x82)))
(assert (not (= x22 (_ bv4 8))))
(assert (not (= x22 x42)))
(assert (not (= x22 (_ bv2 8))))
(assert (not (= x22 (_ bv6 8))))
(assert (not (= x22 x72)))
(assert (not (= x22 x82)))
(assert (not (= (_ bv4 8) x42)))
(assert (not (= (_ bv4 8) (_ bv2 8))))
(assert (not (= (_ bv4 8) (_ bv6 8))))
(assert (not (= (_ bv4 8) x72)))
(assert (not (= (_ bv4 8) x82)))
(assert (not (= x42 (_ bv2 8))))
(assert (not (= x42 (_ bv6 8))))
(assert (not (= x42 x72)))
(assert (not (= x42 x82)))
(assert (not (= (_ bv2 8) (_ bv6 8))))
(assert (not (= (_ bv2 8) x72)))
(assert (not (= (_ bv2 8) x82)))
(assert (not (= (_ bv6 8) x72)))
(assert (not (= (_ bv6 8) x82)))
(assert (not (= x72 x82)))
(assert (not (= x03 x13)))
(assert (not (= x03 (_ bv1 8))))
(assert (not (= x03 (_ bv5 8))))
(assert (not (= x03 x43)))
(assert (not (= x03 x53)))
(assert (not (= x03 (_ bv3 8))))
(assert (not (= x03 (_ bv7 8))))
(assert (not (= x03 (_ bv4 8))))
(assert (not (= x13 (_ bv1 8))))
(assert (not (= x13 (_ bv5 8))))
(assert (not (= x13 x43)))
(assert (not (= x13 x53)))
(assert (not (= x13 (_ bv3 8))))
(assert (not (= x13 (_ bv7 8))))
(assert (not (= x13 (_ bv4 8))))
(assert (not (= (_ bv1 8) (_ bv5 8))))
(assert (not (= (_ bv1 8) x43)))
(assert (not (= (_ bv1 8) x53)))
(assert (not (= (_ bv1 8) (_ bv3 8))))
(assert (not (= (_ bv1 8) (_ bv7 8))))
(assert (not (= (_ bv1 8) (_ bv4 8))))
(assert (not (= (_ bv5 8) x43)))
(assert (not (= (_ bv5 8) x53)))
(assert (not (= (_ bv5 8) (_ bv3 8))))
(assert (not (= (_ bv5 8) (_ bv7 8))))
(assert (not (= (_ bv5 8) (_ bv4 8))))
(assert (not (= x43 x53)))
(assert (not (= x43 (_ bv3 8))))
(assert (not (= x43 (_ bv7 8))))
(assert (not (= x43 (_ bv4 8))))
(assert (not (= x53 (_ bv3 8))))
(assert (not (= x53 (_ bv7 8))))
(assert (not (= x53 (_ bv4 8))))
(assert (not (= (_ bv3 8) (_ bv7 8))))
(assert (not (= (_ bv3 8) (_ bv4 8))))
(assert (not (= (_ bv7 8) (_ bv4 8))))
(assert (not (= (_ bv7 8) x14)))
(assert (not (= (_ bv7 8) x24)))
(assert (not (= (_ bv7 8) x34)))
(assert (not (= (_ bv7 8) (_ bv8 8))))
(assert (not (= (_ bv7 8) x54)))
(assert (not (= (_ bv7 8) (_ bv9 8))))
(assert (not (= (_ bv7 8) x74)))
(assert (not (= (_ bv7 8) x84)))
(assert (not (= x14 x24)))
(assert (not (= x14 x34)))
(assert (not (= x14 (_ bv8 8))))
(assert (not (= x14 x54)))
(assert (not (= x14 (_ bv9 8))))
(assert (not (= x14 x74)))
(assert (not (= x14 x84)))
(assert (not (= x24 x34)))
(assert (not (= x24 (_ bv8 8))))
(assert (not (= x24 x54)))
(assert (not (= x24 (_ bv9 8))))
(assert (not (= x24 x74)))
(assert (not (= x24 x84)))
(assert (not (= x34 (_ bv8 8))))
(assert (not (= x34 x54)))
(assert (not (= x34 (_ bv9 8))))
(assert (not (= x34 x74)))
(assert (not (= x34 x84)))
(assert (not (= (_ bv8 8) x54)))
(assert (not (= (_ bv8 8) (_ bv9 8))))
(assert (not (= (_ bv8 8) x74)))
(assert (not (= (_ bv8 8) x84)))
(assert (not (= x54 (_ bv9 8))))
(assert (not (= x54 x74)))
(assert (not (= x54 x84)))
(assert (not (= (_ bv9 8) x74)))
(assert (not (= (_ bv9 8) x84)))
(assert (not (= x74 x84)))
(assert (not (= (_ bv2 8) x15)))
(assert (not (= (_ bv2 8) (_ bv4 8))))
(assert (not (= (_ bv2 8) x35)))
(assert (not (= (_ bv2 8) x45)))
(assert (not (= (_ bv2 8) x55)))
(assert (not (= (_ bv2 8) x65)))
(assert (not (= (_ bv2 8) (_ bv1 8))))
(assert (not (= (_ bv2 8) x85)))
(assert (not (= x15 (_ bv4 8))))
(assert (not (= x15 x35)))
(assert (not (= x15 x45)))
(assert (not (= x15 x55)))
(assert (not (= x15 x65)))
(assert (not (= x15 (_ bv1 8))))
(assert (not (= x15 x85)))
(assert (not (= (_ bv4 8) x35)))
(assert (not (= (_ bv4 8) x45)))
(assert (not (= (_ bv4 8) x55)))
(assert (not (= (_ bv4 8) x65)))
(assert (not (= (_ bv4 8) (_ bv1 8))))
(assert (not (= (_ bv4 8) x85)))
(assert (not (= x35 x45)))
(assert (not (= x35 x55)))
(assert (not (= x35 x65)))
(assert (not (= x35 (_ bv1 8))))
(assert (not (= x35 x85)))
(assert (not (= x45 x55)))
(assert (not (= x45 x65)))
(assert (not (= x45 (_ bv1 8))))
(assert (not (= x45 x85)))
(assert (not (= x55 x65)))
(assert (not (= x55 (_ bv1 8))))
(assert (not (= x55 x85)))
(assert (not (= x65 (_ bv1 8))))
(assert (not (= x65 x85)))
(assert (not (= (_ bv1 8) x85)))
(assert (not (= (_ bv6 8) (_ bv9 8))))
(assert (not (= (_ bv6 8) x26)))
(assert (not (= (_ bv6 8) x36)))
(assert (not (= (_ bv6 8) (_ bv4 8))))
(assert (not (= (_ bv6 8) (_ bv8 8))))
(assert (not (= (_ bv6 8) x66)))
(assert (not (= (_ bv6 8) x76)))
(assert (not (= (_ bv6 8) x86)))
(assert (not (= (_ bv9 8) x26)))
(assert (not (= (_ bv9 8) x36)))
(assert (not (= (_ bv9 8) (_ bv4 8))))
(assert (not (= (_ bv9 8) (_ bv8 8))))
(assert (not (= (_ bv9 8) x66)))
(assert (not (= (_ bv9 8) x76)))
(assert (not (= (_ bv9 8) x86)))
(assert (not (= x26 x36)))
(assert (not (= x26 (_ bv4 8))))
(assert (not (= x26 (_ bv8 8))))
(assert (not (= x26 x66)))
(assert (not (= x26 x76)))
(assert (not (= x26 x86)))
(assert (not (= x36 (_ bv4 8))))
(assert (not (= x36 (_ bv8 8))))
(assert (not (= x36 x66)))
(assert (not (= x36 x76)))
(assert (not (= x36 x86)))
(assert (not (= (_ bv4 8) (_ bv8 8))))
(assert (not (= (_ bv4 8) x66)))
(assert (not (= (_ bv4 8) x76)))
(assert (not (= (_ bv4 8) x86)))
(assert (not (= (_ bv8 8) x66)))
(assert (not (= (_ bv8 8) x76)))
(assert (not (= (_ bv8 8) x86)))
(assert (not (= x66 x76)))
(assert (not (= x66 x86)))
(assert (not (= x76 x86)))
(assert (not (= (_ bv1 8) (_ bv7 8))))
(assert (not (= (_ bv1 8) x27)))
(assert (not (= (_ bv1 8) (_ bv2 8))))
(assert (not (= (_ bv1 8) (_ bv6 8))))
(assert (not (= (_ bv1 8) x57)))
(assert (not (= (_ bv1 8) x67)))
(assert (not (= (_ bv1 8) (_ bv8 8))))
(assert (not (= (_ bv1 8) x87)))
(assert (not (= (_ bv7 8) x27)))
(assert (not (= (_ bv7 8) (_ bv2 8))))
(assert (not (= (_ bv7 8) (_ bv6 8))))
(assert (not (= (_ bv7 8) x57)))
(assert (not (= (_ bv7 8) x67)))
(assert (not (= (_ bv7 8) (_ bv8 8))))
(assert (not (= (_ bv7 8) x87)))
(assert (not (= x27 (_ bv2 8))))
(assert (not (= x27 (_ bv6 8))))
(assert (not (= x27 x57)))
(assert (not (= x27 x67)))
(assert (not (= x27 (_ bv8 8))))
(assert (not (= x27 x87)))
(assert (not (= (_ bv2 8) (_ bv6 8))))
(assert (not (= (_ bv2 8) x57)))
(assert (not (= (_ bv2 8) x67)))
(assert (not (= (_ bv2 8) (_ bv8 8))))
(assert (not (= (_ bv2 8) x87)))
(assert (not (= (_ bv6 8) x57)))
(assert (not (= (_ bv6 8) x67)))
(assert (not (= (_ bv6 8) (_ bv8 8))))
(assert (not (= (_ bv6 8) x87)))
(assert (not (= x57 x67)))
(assert (not (= x57 (_ bv8 8))))
(assert (not (= x57 x87)))
(assert (not (= x67 (_ bv8 8))))
(assert (not (= x67 x87)))
(assert (not (= (_ bv8 8) x87)))
(assert (not (= x08 x18)))
(assert (not (= x08 x28)))
(assert (not (= x08 (_ bv3 8))))
(assert (not (= x08 x48)))
(assert (not (= x08 x58)))
(assert (not (= x08 (_ bv5 8))))
(assert (not (= x08 x78)))
(assert (not (= x08 (_ bv7 8))))
(assert (not (= x18 x28)))
(assert (not (= x18 (_ bv3 8))))
(assert (not (= x18 x48)))
(assert (not (= x18 x58)))
(assert (not (= x18 (_ bv5 8))))
(assert (not (= x18 x78)))
(assert (not (= x18 (_ bv7 8))))
(assert (not (= x28 (_ bv3 8))))
(assert (not (= x28 x48)))
(assert (not (= x28 x58)))
(assert (not (= x28 (_ bv5 8))))
(assert (not (= x28 x78)))
(assert (not (= x28 (_ bv7 8))))
(assert (not (= (_ bv3 8) x48)))
(assert (not (= (_ bv3 8) x58)))
(assert (not (= (_ bv3 8) (_ bv5 8))))
(assert (not (= (_ bv3 8) x78)))
(assert (not (= (_ bv3 8) (_ bv7 8))))
(assert (not (= x48 x58)))
(assert (not (= x48 (_ bv5 8))))
(assert (not (= x48 x78)))
(assert (not (= x48 (_ bv7 8))))
(assert (not (= x58 (_ bv5 8))))
(assert (not (= x58 x78)))
(assert (not (= x58 (_ bv7 8))))
(assert (not (= (_ bv5 8) x78)))
(assert (not (= (_ bv5 8) (_ bv7 8))))
(assert (not (= x78 (_ bv7 8))))
(assert (not (= x00 x01)))
(assert (not (= x00 (_ bv3 8))))
(assert (not (= x00 x10)))
(assert (not (= x00 (_ bv6 8))))
(assert (not (= x00 x12)))
(assert (not (= x00 x20)))
(assert (not (= x00 x21)))
(assert (not (= x00 x22)))
(assert (not (= x01 (_ bv3 8))))
(assert (not (= x01 x10)))
(assert (not (= x01 (_ bv6 8))))
(assert (not (= x01 x12)))
(assert (not (= x01 x20)))
(assert (not (= x01 x21)))
(assert (not (= x01 x22)))
(assert (not (= (_ bv3 8) x10)))
(assert (not (= (_ bv3 8) (_ bv6 8))))
(assert (not (= (_ bv3 8) x12)))
(assert (not (= (_ bv3 8) x20)))
(assert (not (= (_ bv3 8) x21)))
(assert (not (= (_ bv3 8) x22)))
(assert (not (= x10 (_ bv6 8))))
(assert (not (= x10 x12)))
(assert (not (= x10 x20)))
(assert (not (= x10 x21)))
(assert (not (= x10 x22)))
(assert (not (= (_ bv6 8) x12)))
(assert (not (= (_ bv6 8) x20)))
(assert (not (= (_ bv6 8) x21)))
(assert (not (= (_ bv6 8) x22)))
(assert (not (= x12 x20)))
(assert (not (= x12 x21)))
(assert (not (= x12 x22)))
(assert (not (= x20 x21)))
(assert (not (= x20 x22)))
(assert (not (= x21 x22)))
(assert (not (= x03 (_ bv7 8))))
(assert (not (= x03 (_ bv2 8))))
(assert (not (= x03 x13)))
(assert (not (= x03 x14)))
(assert (not (= x03 x15)))
(assert (not (= x03 (_ bv1 8))))
(assert (not (= x03 x24)))
(assert (not (= x03 (_ bv4 8))))
(assert (not (= (_ bv7 8) (_ bv2 8))))
(assert (not (= (_ bv7 8) x13)))
(assert (not (= (_ bv7 8) x14)))
(assert (not (= (_ bv7 8) x15)))
(assert (not (= (_ bv7 8) (_ bv1 8))))
(assert (not (= (_ bv7 8) x24)))
(assert (not (= (_ bv7 8) (_ bv4 8))))
(assert (not (= (_ bv2 8) x13)))
(assert (not (= (_ bv2 8) x14)))
(assert (not (= (_ bv2 8) x15)))
(assert (not (= (_ bv2 8) (_ bv1 8))))
(assert (not (= (_ bv2 8) x24)))
(assert (not (= (_ bv2 8) (_ bv4 8))))
(assert (not (= x13 x14)))
(assert (not (= x13 x15)))
(assert (not (= x13 (_ bv1 8))))
(assert (not (= x13 x24)))
(assert (not (= x13 (_ bv4 8))))
(assert (not (= x14 x15)))
(assert (not (= x14 (_ bv1 8))))
(assert (not (= x14 x24)))
(assert (not (= x14 (_ bv4 8))))
(assert (not (= x15 (_ bv1 8))))
(assert (not (= x15 x24)))
(assert (not (= x15 (_ bv4 8))))
(assert (not (= (_ bv1 8) x24)))
(assert (not (= (_ bv1 8) (_ bv4 8))))
(assert (not (= x24 (_ bv4 8))))
(assert (not (= (_ bv6 8) (_ bv1 8))))
(assert (not (= (_ bv6 8) x08)))
(assert (not (= (_ bv6 8) (_ bv9 8))))
(assert (not (= (_ bv6 8) (_ bv7 8))))
(assert (not (= (_ bv6 8) x18)))
(assert (not (= (_ bv6 8) x26)))
(assert (not (= (_ bv6 8) x27)))
(assert (not (= (_ bv6 8) x28)))
(assert (not (= (_ bv1 8) x08)))
(assert (not (= (_ bv1 8) (_ bv9 8))))
(assert (not (= (_ bv1 8) (_ bv7 8))))
(assert (not (= (_ bv1 8) x18)))
(assert (not (= (_ bv1 8) x26)))
(assert (not (= (_ bv1 8) x27)))
(assert (not (= (_ bv1 8) x28)))
(assert (not (= x08 (_ bv9 8))))
(assert (not (= x08 (_ bv7 8))))
(assert (not (= x08 x18)))
(assert (not (= x08 x26)))
(assert (not (= x08 x27)))
(assert (not (= x08 x28)))
(assert (not (= (_ bv9 8) (_ bv7 8))))
(assert (not (= (_ bv9 8) x18)))
(assert (not (= (_ bv9 8) x26)))
(assert (not (= (_ bv9 8) x27)))
(assert (not (= (_ bv9 8) x28)))
(assert (not (= (_ bv7 8) x18)))
(assert (not (= (_ bv7 8) x26)))
(assert (not (= (_ bv7 8) x27)))
(assert (not (= (_ bv7 8) x28)))
(assert (not (= x18 x26)))
(assert (not (= x18 x27)))
(assert (not (= x18 x28)))
(assert (not (= x26 x27)))
(assert (not (= x26 x28)))
(assert (not (= x27 x28)))
(assert (not (= x30 (_ bv8 8))))
(assert (not (= x30 (_ bv4 8))))
(assert (not (= x30 x40)))
(assert (not (= x30 (_ bv9 8))))
(assert (not (= x30 x42)))
(assert (not (= x30 (_ bv1 8))))
(assert (not (= x30 x51)))
(assert (not (= x30 (_ bv2 8))))
(assert (not (= (_ bv8 8) (_ bv4 8))))
(assert (not (= (_ bv8 8) x40)))
(assert (not (= (_ bv8 8) (_ bv9 8))))
(assert (not (= (_ bv8 8) x42)))
(assert (not (= (_ bv8 8) (_ bv1 8))))
(assert (not (= (_ bv8 8) x51)))
(assert (not (= (_ bv8 8) (_ bv2 8))))
(assert (not (= (_ bv4 8) x40)))
(assert (not (= (_ bv4 8) (_ bv9 8))))
(assert (not (= (_ bv4 8) x42)))
(assert (not (= (_ bv4 8) (_ bv1 8))))
(assert (not (= (_ bv4 8) x51)))
(assert (not (= (_ bv4 8) (_ bv2 8))))
(assert (not (= x40 (_ bv9 8))))
(assert (not (= x40 x42)))
(assert (not (= x40 (_ bv1 8))))
(assert (not (= x40 x51)))
(assert (not (= x40 (_ bv2 8))))
(assert (not (= (_ bv9 8) x42)))
(assert (not (= (_ bv9 8) (_ bv1 8))))
(assert (not (= (_ bv9 8) x51)))
(assert (not (= (_ bv9 8) (_ bv2 8))))
(assert (not (= x42 (_ bv1 8))))
(assert (not (= x42 x51)))
(assert (not (= x42 (_ bv2 8))))
(assert (not (= (_ bv1 8) x51)))
(assert (not (= (_ bv1 8) (_ bv2 8))))
(assert (not (= x51 (_ bv2 8))))
(assert (not (= (_ bv5 8) x34)))
(assert (not (= (_ bv5 8) x35)))
(assert (not (= (_ bv5 8) x43)))
(assert (not (= (_ bv5 8) (_ bv8 8))))
(assert (not (= (_ bv5 8) x45)))
(assert (not (= (_ bv5 8) x53)))
(assert (not (= (_ bv5 8) x54)))
(assert (not (= (_ bv5 8) x55)))
(assert (not (= x34 x35)))
(assert (not (= x34 x43)))
(assert (not (= x34 (_ bv8 8))))
(assert (not (= x34 x45)))
(assert (not (= x34 x53)))
(assert (not (= x34 x54)))
(assert (not (= x34 x55)))
(assert (not (= x35 x43)))
(assert (not (= x35 (_ bv8 8))))
(assert (not (= x35 x45)))
(assert (not (= x35 x53)))
(assert (not (= x35 x54)))
(assert (not (= x35 x55)))
(assert (not (= x43 (_ bv8 8))))
(assert (not (= x43 x45)))
(assert (not (= x43 x53)))
(assert (not (= x43 x54)))
(assert (not (= x43 x55)))
(assert (not (= (_ bv8 8) x45)))
(assert (not (= (_ bv8 8) x53)))
(assert (not (= (_ bv8 8) x54)))
(assert (not (= (_ bv8 8) x55)))
(assert (not (= x45 x53)))
(assert (not (= x45 x54)))
(assert (not (= x45 x55)))
(assert (not (= x53 x54)))
(assert (not (= x53 x55)))
(assert (not (= x54 x55)))
(assert (not (= x36 (_ bv2 8))))
(assert (not (= x36 (_ bv3 8))))
(assert (not (= x36 (_ bv4 8))))
(assert (not (= x36 (_ bv6 8))))
(assert (not (= x36 x48)))
(assert (not (= x36 (_ bv8 8))))
(assert (not (= x36 x57)))
(assert (not (= x36 x58)))
(assert (not (= (_ bv2 8) (_ bv3 8))))
(assert (not (= (_ bv2 8) (_ bv4 8))))
(assert (not (= (_ bv2 8) (_ bv6 8))))
(assert (not (= (_ bv2 8) x48)))
(assert (not (= (_ bv2 8) (_ bv8 8))))
(assert (not (= (_ bv2 8) x57)))
(assert (not (= (_ bv2 8) x58)))
(assert (not (= (_ bv3 8) (_ bv4 8))))
(assert (not (= (_ bv3 8) (_ bv6 8))))
(assert (not (= (_ bv3 8) x48)))
(assert (not (= (_ bv3 8) (_ bv8 8))))
(assert (not (= (_ bv3 8) x57)))
(assert (not (= (_ bv3 8) x58)))
(assert (not (= (_ bv4 8) (_ bv6 8))))
(assert (not (= (_ bv4 8) x48)))
(assert (not (= (_ bv4 8) (_ bv8 8))))
(assert (not (= (_ bv4 8) x57)))
(assert (not (= (_ bv4 8) x58)))
(assert (not (= (_ bv6 8) x48)))
(assert (not (= (_ bv6 8) (_ bv8 8))))
(assert (not (= (_ bv6 8) x57)))
(assert (not (= (_ bv6 8) x58)))
(assert (not (= x48 (_ bv8 8))))
(assert (not (= x48 x57)))
(assert (not (= x48 x58)))
(assert (not (= (_ bv8 8) x57)))
(assert (not (= (_ bv8 8) x58)))
(assert (not (= x57 x58)))
(assert (not (= x60 x61)))
(assert (not (= x60 (_ bv6 8))))
(assert (not (= x60 (_ bv2 8))))
(assert (not (= x60 x71)))
(assert (not (= x60 x72)))
(assert (not (= x60 (_ bv5 8))))
(assert (not (= x60 (_ bv3 8))))
(assert (not (= x60 x82)))
(assert (not (= x61 (_ bv6 8))))
(assert (not (= x61 (_ bv2 8))))
(assert (not (= x61 x71)))
(assert (not (= x61 x72)))
(assert (not (= x61 (_ bv5 8))))
(assert (not (= x61 (_ bv3 8))))
(assert (not (= x61 x82)))
(assert (not (= (_ bv6 8) (_ bv2 8))))
(assert (not (= (_ bv6 8) x71)))
(assert (not (= (_ bv6 8) x72)))
(assert (not (= (_ bv6 8) (_ bv5 8))))
(assert (not (= (_ bv6 8) (_ bv3 8))))
(assert (not (= (_ bv6 8) x82)))
(assert (not (= (_ bv2 8) x71)))
(assert (not (= (_ bv2 8) x72)))
(assert (not (= (_ bv2 8) (_ bv5 8))))
(assert (not (= (_ bv2 8) (_ bv3 8))))
(assert (not (= (_ bv2 8) x82)))
(assert (not (= x71 x72)))
(assert (not (= x71 (_ bv5 8))))
(assert (not (= x71 (_ bv3 8))))
(assert (not (= x71 x82)))
(assert (not (= x72 (_ bv5 8))))
(assert (not (= x72 (_ bv3 8))))
(assert (not (= x72 x82)))
(assert (not (= (_ bv5 8) (_ bv3 8))))
(assert (not (= (_ bv5 8) x82)))
(assert (not (= (_ bv3 8) x82)))
(assert (not (= (_ bv3 8) (_ bv9 8))))
(assert (not (= (_ bv3 8) x65)))
(assert (not (= (_ bv3 8) (_ bv7 8))))
(assert (not (= (_ bv3 8) x74)))
(assert (not (= (_ bv3 8) (_ bv1 8))))
(assert (not (= (_ bv3 8) (_ bv4 8))))
(assert (not (= (_ bv3 8) x84)))
(assert (not (= (_ bv3 8) x85)))
(assert (not (= (_ bv9 8) x65)))
(assert (not (= (_ bv9 8) (_ bv7 8))))
(assert (not (= (_ bv9 8) x74)))
(assert (not (= (_ bv9 8) (_ bv1 8))))
(assert (not (= (_ bv9 8) (_ bv4 8))))
(assert (not (= (_ bv9 8) x84)))
(assert (not (= (_ bv9 8) x85)))
(assert (not (= x65 (_ bv7 8))))
(assert (not (= x65 x74)))
(assert (not (= x65 (_ bv1 8))))
(assert (not (= x65 (_ bv4 8))))
(assert (not (= x65 x84)))
(assert (not (= x65 x85)))
(assert (not (= (_ bv7 8) x74)))
(assert (not (= (_ bv7 8) (_ bv1 8))))
(assert (not (= (_ bv7 8) (_ bv4 8))))
(assert (not (= (_ bv7 8) x84)))
(assert (not (= (_ bv7 8) x85)))
(assert (not (= x74 (_ bv1 8))))
(assert (not (= x74 (_ bv4 8))))
(assert (not (= x74 x84)))
(assert (not (= x74 x85)))
(assert (not (= (_ bv1 8) (_ bv4 8))))
(assert (not (= (_ bv1 8) x84)))
(assert (not (= (_ bv1 8) x85)))
(assert (not (= (_ bv4 8) x84)))
(assert (not (= (_ bv4 8) x85)))
(assert (not (= x84 x85)))
(assert (not (= x66 x67)))
(assert (not (= x66 (_ bv5 8))))
(assert (not (= x66 x76)))
(assert (not (= x66 (_ bv8 8))))
(assert (not (= x66 x78)))
(assert (not (= x66 x86)))
(assert (not (= x66 x87)))
(assert (not (= x66 (_ bv7 8))))
(assert (not (= x67 (_ bv5 8))))
(assert (not (= x67 x76)))
(assert (not (= x67 (_ bv8 8))))
(assert (not (= x67 x78)))
(assert (not (= x67 x86)))
(assert (not (= x67 x87)))
(assert (not (= x67 (_ bv7 8))))
(assert (not (= (_ bv5 8) x76)))
(assert (not (= (_ bv5 8) (_ bv8 8))))
(assert (not (= (_ bv5 8) x78)))
(assert (not (= (_ bv5 8) x86)))
(assert (not (= (_ bv5 8) x87)))
(assert (not (= (_ bv5 8) (_ bv7 8))))
(assert (not (= x76 (_ bv8 8))))
(assert (not (= x76 x78)))
(assert (not (= x76 x86)))
(assert (not (= x76 x87)))
(assert (not (= x76 (_ bv7 8))))
(assert (not (= (_ bv8 8) x78)))
(assert (not (= (_ bv8 8) x86)))
(assert (not (= (_ bv8 8) x87)))
(assert (not (= (_ bv8 8) (_ bv7 8))))
(assert (not (= x78 x86)))
(assert (not (= x78 x87)))
(assert (not (= x78 (_ bv7 8))))
(assert (not (= x86 x87)))
(assert (not (= x86 (_ bv7 8))))
(assert (not (= x87 (_ bv7 8))))
(check-sat)
(exit)
